323821
323821
323821
203816
203816
203816
203816
252723
252723
252723
252723
248402
171468
171468
171468
171468
171468
171468
171468
171468
171468
171468
171468
171468
171468
171468
212732
212732
212732
212732
212732
212732
212732
212732
212732
212732
212732
212732
212732
212732
212732
212732
212732
212732
212732
212732
72969.9
72969.9
72969.9
72969.9
72969.9
72969.9
72969.9
72969.9
72969.9
72969.9
72969.9
72969.9
72969.9
72969.9
72969.9
72969.9
72969.9
72969.9
72969.9
72969.9
72969.9
72969.9
72969.9
72969.9
72969.9
72969.9
72969.9
72969.9
72969.9
72969.9
72969.9
72969.9
72969.9
72969.9
72969.9
72969.9
72969.9
72969.9
72969.9
72969.9
72969.9
72969.9
72969.9
72969.9
72969.9
72969.9
72969.9
72969.9
72969.9
72969.9
72969.9
72969.9
72969.9
72969.9
